# Objective value = 21.6512827468581
B0(2) 0
B1(2) 0
B2(2) 1
B3(2) 0
B4(2) 0
B5(2) 0
B6(2) 0
B7(2) 0
B8(2) 0
B9(2) 0
B10(2) 0
B11(2) 0
B12(2) 0
B13(2) 0
B14(2) 0
B15(2) 0
B16(2) 0
B17(2) 0
B18(2) 0
B19(2) 0
B20(2) 0
B21(2) 0
B22(2) 0
B23(2) 0
B24(2) 0
B25(2) 0
B26(2) 0
B27(2) 0
B28(2) 0
B29(2) 0
B30(2) 0
B31(2) 0
B32(2) 0
B33(2) 0
B34(2) 0
B35(2) 0
B36(2) 0
B37(2) 0
B38(2) 0
B39(2) 0
B40(2) 0
B41(2) 0
B42(2) 0
B43(2) 0
B44(2) 1
B45(2) 0
B46(2) 0
B47(2) 0
B48(2) 0
B49(2) 0
B50(2) 1
B51(2) 0
B52(2) 0
B53(2) 0
B54(2) 0
B55(2) 0
B56(2) 0
B57(2) 0
B58(2) 0
B59(2) 0
B60(2) 0
B61(2) 0
B62(2) 0
B63(2) 0
B64(2) 0
B65(2) 0
B66(2) 0
B67(2) 0
B68(2) 0
B69(2) 0
B70(2) 0
B71(2) 1
B72(2) 0
B73(2) 0
B74(2) 0
B75(2) 0
B76(2) 0
B77(2) 0
B78(2) 0
B79(2) 0
B80(2) 0
B81(2) 0
B82(2) 0
B83(2) 0
B84(2) 0
B85(2) 0
B86(2) 0
B87(2) 0
B88(2) 0
B89(2) 0
B90(2) 0
B91(2) 0
B92(2) 0
B93(2) 0
B94(2) 0
B95(2) 0
B96(2) 0
B97(2) 0
B98(2) 0
B99(2) 0
B100(2) 0
B101(2) 0
B102(2) 0
B103(2) 0
B104(2) 0
B105(2) 0
B106(2) 0
B107(2) 0
B108(2) 0
B109(2) 0
B110(2) 0
B111(2) 0
B112(2) 0
B113(2) 0
B114(2) 0
B115(2) 1
B116(2) 0
B117(2) 0
B118(2) 0
B119(2) 0
B120(2) 0
B121(2) 0
B122(2) 0
B123(2) 0
B124(2) 1
B125(2) 1
B126(2) 0
B127(2) 1
B128(2) 1
B129(2) 0
B130(2) 0
B131(2) 1
B132(2) 0
B133(2) 0
B134(2) 1
B135(2) 0
B136(2) 0
B137(2) 1
B138(2) 0
B139(2) 0
B140(2) 0
B141(2) 0
B142(2) 0
B143(2) 0
B144(2) 0
B145(2) 0
B146(2) 0
B147(2) 0
B148(2) 0
B149(2) 1
B150(2) 0
B151(2) 1
B152(2) 0
B153(2) 0
B154(2) 0
B155(2) 0
B156(2) 0
B157(2) 0
B158(2) 0
B159(2) 0
B160(2) 1
B161(2) 1
B162(2) 0
B163(2) 0
B164(2) 0
B165(2) 0
B166(2) 0
B167(2) 1
B168(2) 0
B169(2) 0
B170(2) 0
B171(2) 0
B172(2) 0
B173(2) 0
B174(2) 0
B175(2) 0
B176(2) 0
B177(2) 0
B178(2) 0
B179(2) 0
B180(2) 0
B181(2) 0
B182(2) 0
B183(2) 1
B184(2) 0
B185(2) 0
B186(2) 0
B187(2) 0
B188(2) 0
B189(2) 0
B190(2) 0
B191(2) 0
B192(2) 0
B193(2) 0
B194(2) 0
B195(2) 0
B196(2) 0
B197(2) 0
B198(2) 0
B199(2) 0
B200(2) 0
B201(2) 0
B202(2) 0
B203(2) 0
B204(2) 0
B205(2) 0
B206(2) 0
B207(2) 0
B208(2) 0
B209(2) 0
B210(2) 0
B211(2) 0
B212(2) 1
B213(2) 0
B214(2) 0
B215(2) 0
B216(2) 0
B217(2) 0
B218(2) 0
B219(2) 0
B220(2) 0
B221(2) 0
B222(2) 0
B223(2) 0
B224(2) 0
B225(2) 1
B226(2) 0
B227(2) 0
B228(2) 0
B229(2) 0
B230(2) 0
B231(2) 1
B232(2) 0
B233(2) 1
B234(2) 0
B235(2) 1
B236(2) 0
B237(2) 0
B238(2) 1
B239(2) 0
B240(2) 0
B241(2) 0
B242(2) 0
B243(2) 0
B244(2) 0
B245(2) 0
B246(2) 0
B247(2) 0
B248(2) 1
B249(2) 0
B250(2) 1
B251(2) 0
B252(2) 0
B253(2) 1
B254(2) 0
B255(2) 0
B256(2) 0
B257(2) 0
B258(2) 0
B259(2) 0
B260(2) 0
B261(2) 1
B262(2) 0
B263(2) 1
B264(2) 0
B265(2) 0
B266(2) 0
B267(2) 0
B268(2) 0
B269(2) 0
B270(2) 0
B271(2) 0
B272(2) 0
B273(2) 0
B274(2) 0
B275(2) 0
B276(2) 0
B277(2) 0
B278(2) 1
B279(2) 0
B280(2) 0
B281(2) 0
B282(2) 0
B283(2) 0
B284(2) 0
B285(2) 0
B286(2) 0
B287(2) 0
B288(2) 0
B289(2) 0
B290(2) 0
B291(2) 1
B292(2) 0
B293(2) 0
B294(2) 0
B295(2) 0
B296(2) 0
B297(2) 0
B298(2) 0
B299(2) 0
B300(2) 1
B301(2) 0
B302(2) 0
B303(2) 0
B304(2) 0
B305(2) 0
B306(2) 0
B307(2) 0
B308(2) 0
B309(2) 1
B310(2) 0
B311(2) 0
B312(2) 1
B313(2) 0
B314(2) 0
B315(2) 1
B316(2) 0
B317(2) 0
B318(2) 0
B319(2) 0
B320(2) 0
B321(2) 1
B322(2) 0
B323(2) 0
B324(2) 0
B325(2) 0
B326(2) 0
B327(2) 0
B328(2) 0
B329(2) 0
B330(2) 1
B331(2) 0
B332(2) 0
B333(2) 1
B334(2) 0
B335(2) 0
B336(2) 0
B337(2) 0
B338(2) 0
B339(2) 0
B340(2) 0
B341(2) 0
B342(2) 0
B343(2) 0
B344(2) 0
B345(2) 0
B346(2) 0
B347(2) 0
B348(2) 0
B349(2) 0
B350(2) 0
B351(2) 0
B352(2) 0
B353(2) 0
B354(2) 1
B355(2) 0
B356(2) 0
B357(2) 1
B358(2) 0
B359(2) 0
B360(2) 0
B361(2) 0
B362(2) 0
B363(2) 0
B364(2) 0
B365(2) 0
B366(2) 1
B367(2) 0
B368(2) 0
B369(2) 0
B370(2) 0
B371(2) 0
B372(2) 0
B373(2) 0
B374(2) 0
B375(2) 0
B376(2) 0
B377(2) 0
B378(2) 0
B379(2) 0
B380(2) 0
B381(2) 0
B382(2) 0
B383(2) 0
B384(2) 0
B385(2) 0
B386(2) 0
B387(2) 0
B388(2) 0
B389(2) 0
B390(2) 1
B391(2) 0
B392(2) 0
B393(2) 0
B394(2) 0
B395(2) 0
B396(2) 0
B397(2) 0
B398(2) 0
B399(2) 0
B400(2) 0
B401(2) 0
B402(2) 0
B403(2) 0
B404(2) 0
B405(2) 0
B406(2) 0
B407(2) 0
B408(2) 0
B409(2) 0
B410(2) 0
B411(2) 0
B412(2) 0
B413(2) 0
B414(2) 0
B415(2) 0
B416(2) 0
B417(2) 0
B418(2) 0
B419(2) 0
B420(2) 0
B421(2) 0
B422(2) 0
B423(2) 0
B424(2) 0
B425(2) 0
B426(2) 0
B427(2) 0
B428(2) 0
B429(2) 0
B430(2) 0
B431(2) 0
B432(2) 0
B433(2) 1
B434(2) 1
B435(2) 0
B436(2) 1
B437(2) 0
B438(2) 0
B439(2) 0
B440(2) 0
B441(2) 0
B442(2) 0
B443(2) 0
B444(2) 0
B445(2) 0
B446(2) 0
B447(2) 0
B448(2) 0
B449(2) 0
B450(2) 1
B451(2) 0
B452(2) 0
B453(2) 0
B454(2) 0
B455(2) 1
B456(2) 0
B457(2) 0
B458(2) 0
B459(2) 0
B460(2) 0
B461(2) 0
B462(2) 0
B463(2) 0
B464(2) 0
B465(2) 0
B466(2) 0
B467(2) 0
B468(2) 0
B469(2) 0
B470(2) 0
B471(2) 0
B472(2) 0
B473(2) 0
B474(2) 0
B475(2) 0
B476(2) 1
B477(2) 0
B478(2) 0
B479(2) 0
B480(2) 0
B481(2) 0
B482(2) 0
B483(2) 0
B484(2) 0
B485(2) 0
B486(2) 0
B487(2) 0
B488(2) 0
B489(2) 0
B490(2) 0
B491(2) 0
B492(2) 1
B493(2) 0
B494(2) 0
B495(2) 0
B496(2) 0
B497(2) 0
B498(2) 0
B499(2) 0
B500(2) 0
B501(2) 0
B502(2) 0
B503(2) 0
B504(2) 0
B505(2) 0
B506(2) 0
B507(2) 0
B508(2) 0
B509(2) 0
B510(2) 0
B511(2) 0
B512(2) 0
B513(2) 0
B514(2) 0
B515(2) 0
B516(2) 0
B517(2) 0
B518(2) 1
B519(2) 0
B520(2) 0
B521(2) 0
B522(2) 0
B523(2) 0
B524(2) 0
B525(2) 0
B526(2) 0
B527(2) 0
B528(2) 0
B529(2) 0
B530(2) 0
B531(2) 0
B532(2) 0
B533(2) 1
B534(2) 0
B535(2) 0
B536(2) 0
B537(2) 0
B538(2) 0
B539(2) 0
B540(2) 0
B541(2) 0
B542(2) 0
B543(2) 0
B544(2) 0
B545(2) 0
B546(2) 0
B547(2) 0
B548(2) 0
B549(2) 0
B550(2) 0
B551(2) 0
B552(2) 0
B553(2) 0
B554(2) 0
B555(2) 0
B556(2) 0
B557(2) 0
B558(2) 0
B559(2) 0
B560(2) 0
B561(2) 0
B562(2) 0
B563(2) 0
B564(2) 0
B565(2) 0
B566(2) 0
B567(2) 0
B568(2) 0
B569(2) 0
B570(2) 0
B571(2) 0
B572(2) 0
B573(2) 0
B574(2) 0
B575(2) 0
B576(2) 0
B577(2) 0
B578(2) 0
B579(2) 0
B580(2) 0
B581(2) 0
B582(2) 0
B583(2) 0
B584(2) 0
B585(2) 0
B586(2) 0
B587(2) 0
B588(2) 0
B589(2) 0
B590(2) 0
B591(2) 0
B592(2) 0
B593(2) 0
B594(2) 0
B595(2) 0
B596(2) 0
B597(2) 0
B598(2) 0
B599(2) 0
B600(2) 0
B601(2) 0
B602(2) 0
B603(2) 0
B604(2) 0
B605(2) 0
B606(2) 0
B607(2) 0
B608(2) 0
B609(2) 0
B610(2) 0
B611(2) 0
B612(2) 0
B613(2) 0
B614(2) 0
B615(2) 0
B616(2) 0
B617(2) 0
B618(12) 0
B619(10) 0
B620(3) 1
B621(10) 0
B622(3) 1
B623(10) 1
B624(3) 0
B625(18) 0
B626(3) 1
B627(3) 1
B628(3) 1
B629(12) 1
B630(10) 1
B631(3) 0
B632(12) 1
B633(10) 1
B634(3) 0
B635(12) 0
B636(18) 0
B637(3) 1
B638(12) 0
B639(3) 1
B640(12) 0
B641(3) 1
B642(12) 1
B643(10) 1
B644(3) 0
B645(12) 0
B646(18) 0
B647(3) 1
B648(12) 0
B649(3) 1
B650(12) 0
B651(3) 1
B652(12) 0
B653(18) 0
B654(3) 1
B655(12) 0
B656(3) 1
B657(12) 0
B658(3) 1
B659(12) 0
B660(6) 0
B661(3) 1
B662(12) 0
B663(6) 0
B664(3) 1
B665(12) 0
B666(6) 0
B667(3) 1
B668(10) 0
B669(3) 1
B670(10) 0
B671(3) 1
B672(22) 1
B673(3) 0
B674(10) 0
B675(3) 1
B676(10) 0
B677(3) 1
B678(22) 0
B679(3) 1
B680(10) 1
B681(3) 0
B682(3) 0
B683(10) 0
B684(3) 1
B685(10) 0
B686(3) 1
B687(3) 1
B688(3) 0
B689(10) 0
B690(3) 1
B691(10) 0
B692(3) 1
B693(3) 1
B694(3) 1
B695(3) 1
B696(6) 0
B697(3) 1
B698(10) 0
B699(3) 1
B700(3) 1
B701(3) 1
B702(3) 1
B703(3) 1
B704(22) 0
B705(3) 0
B706(3) 1
B707(3) 1
B708(6) 0
B709(3) 1
B710(10) 1
B711(3) 0
B712(10) 1
B713(3) 0
B714(10) 1
B715(3) 0
B716(10) 0
B717(3) 1
B718(3) 1
B719(10) 1
B720(3) 0
B721(10) 0
B722(3) 1
B723(10) 0
B724(3) 1
B725(3) 1
B726(10) 0
B727(3) 1
B728(10) 0
B729(3) 1
B730(22) 0
B731(3) 1
B732(10) 0
B733(3) 1
B734(3) 1
B735(3) 1
B736(10) 0
B737(3) 1
B738(10) 0
B739(3) 1
B740(10) 0
B741(3) 1
B742(18) 0
B743(3) 1
B744(3) 1
B745(3) 1
B746(10) 1
B747(3) 0
B748(10) 1
B749(3) 0
B750(18) 0
B751(3) 0
B752(3) 1
B753(3) 1
B754(10) 1
B755(3) 0
B756(18) 0
B757(3) 1
B758(3) 1
B759(3) 1
B760(18) 0
B761(3) 1
B762(3) 1
B763(3) 1
B764(6) 0
B765(3) 1
B766(6) 0
B767(3) 1
B768(6) 0
B769(3) 1
B770(22) 0
B771(3) 1
B772(3) 1
B773(3) 1
B774(3) 1
B775(3) 1
B776(6) 0
B777(3) 1
B778(10) 1
B779(3) 0
B780(10) 1
B781(3) 0
B782(10) 0
B783(3) 1
B784(10) 0
B785(3) 1
B786(3) 1
B787(10) 1
B788(3) 0
B789(10) 0
B790(3) 1
B791(10) 0
B792(3) 1
B793(3) 1
B794(10) 0
B795(3) 1
B796(10) 0
B797(3) 1
B798(3) 1
B799(10) 0
B800(3) 1
B801(3) 1
B802(22) 0
B803(3) 1
B804(3) 1
B805(18) 0
B806(3) 1
B807(10) 0
B808(3) 1
B809(10) 0
B810(3) 1
B811(10) 0
B812(3) 1
B813(3) 1
B814(6) 1
B815(3) 0
B816(3) 0
B817(3) 1
B818(3) 1
B819(6) 1
B820(3) 0
B821(18) 1
B822(3) 0
B823(18) 0
B824(3) 1
B825(18) 0
B826(3) 1
B827(6) 0
B828(3) 1
B829(10) 0
B830(3) 1
B831(10) 0
B832(3) 1
B833(3) 1
B834(10) 0
B835(3) 1
B836(3) 0
B837(3) 0
B838(4) 0
B839(3) 1
B840(3) 0
B841(3) 0
B842(4) 0
B843(3) 1
B844(3) 1
B845(3) 0
B846(16) 1
B847(3) 0
B848(16) 1
B849(3) 0
B850(6) 1
B851(3) 0
B852(16) 0
B853(3) 1
B854(16) 1
B855(3) 0
B856(10) 0
B857(3) 0
B858(3) 1
B859(10) 0
B860(3) 1
B861(10) 0
B862(3) 1
B863(3) 1
B864(10) 0
B865(3) 1
B866(10) 0
B867(3) 1
B868(3) 1
B869(3) 0
B870(10) 1
B871(3) 0
B872(8) 1
B873(3) 0
B874(8) 1
B875(3) 0
B876(16) 0
B877(3) 0
B878(3) 1
B879(3) 0
B880(8) 0
B881(3) 1
B882(16) 0
B883(3) 1
B884(3) 1
B885(3) 1
B886(16) 0
B887(3) 1
B888(3) 1
B889(3) 1
B890(6) 0
B891(3) 1
B892(6) 0
B893(3) 0
B894(6) 0
B895(3) 0
B896(10) 1
B897(3) 0
B898(10) 1
B899(3) 0
B900(16) 0
B901(3) 1
B902(3) 1
B903(10) 0
B904(3) 1
B905(10) 1
B906(3) 0
B907(16) 0
B908(3) 1
B909(3) 1
B910(10) 0
B911(3) 1
B912(16) 0
B913(3) 1
B914(3) 1
B915(10) 0
B916(3) 1
B917(6) 0
B918(3) 1
B919(16) 0
B920(3) 1
B921(3) 1
B922(10) 1
B923(3) 0
B924(10) 1
B925(3) 0
B926(3) 1
B927(16) 0
B928(3) 1
B929(10) 0
B930(3) 1
B931(3) 1
B932(10) 0
B933(3) 0
B934(3) 1
B935(16) 0
B936(3) 1
B937(10) 0
B938(3) 1
B939(3) 1
B940(3) 1
B941(16) 0
B942(3) 1
B943(10) 0
B944(3) 1
B945(3) 1
B946(4) 0
B947(3) 1
B948(3) 1
B949(4) 0
B950(4) 0
B951(3) 1
B952(16) 0
B953(3) 1
B954(4) 0
B955(6) 0
B956(3) 1
B957(3) 0
B958(16) 1
B959(3) 0
B960(16) 1
B961(3) 0
B962(6) 0
B963(3) 1
B964(6) 0
B965(3) 1
B966(16) 0
B967(3) 1
B968(8) 0
B969(3) 1
B970(3) 1
B971(3) 1
B972(8) 0
B973(3) 1
B974(3) 1
B975(3) 1
B976(8) 0
B977(3) 1
B978(6) 0
B979(3) 1
B980(3) 1
B981(3) 0
B982(10) 1
B983(3) 0
B984(10) 1
B985(3) 0
B986(14) 0
B987(3) 1
B988(3) 1
B989(10) 0
B990(3) 1
B991(10) 0
B992(3) 1
B993(14) 0
B994(3) 1
B995(3) 1
B996(10) 0
B997(3) 1
B998(14) 0
B999(3) 1
B1000(3) 1
B1001(10) 0
B1002(3) 1
B1003(4) 1
B1004(3) 0
B1005(14) 0
B1006(3) 1
B1007(3) 1
B1008(8) 1
B1009(3) 0
B1010(8) 1
B1011(3) 0
B1012(8) 0
B1013(3) 1
B1014(3) 0
B1015(3) 1
B1016(8) 1
B1017(3) 0
B1018(8) 0
B1019(3) 1
B1020(3) 0
B1021(3) 1
B1022(8) 0
B1023(3) 1
B1024(3) 0
B1025(3) 1
B1026(18) 1
B1027(3) 0
B1028(18) 0
B1029(3) 1
B1030(6) 0
B1031(3) 1
B1032(16) 1
B1033(3) 0
B1034(16) 1
B1035(3) 0
B1036(6) 0
B1037(3) 1
B1038(6) 1
B1039(3) 0
B1040(16) 0
B1041(3) 1
B1042(8) 0
B1043(3) 0
B1044(3) 1
B1045(3) 0
B1046(8) 0
B1047(3) 1
B1048(3) 1
B1049(3) 0
B1050(8) 0
B1051(3) 1
B1052(6) 1
B1053(3) 0
B1054(3) 1
B1055(3) 1
B1056(16) 1
B1057(3) 0
B1058(16) 1
B1059(3) 0
B1060(6) 0
B1061(3) 1
B1062(6) 0
B1063(3) 0
B1064(16) 0
B1065(3) 1
B1066(8) 1
B1067(3) 0
B1068(3) 1
B1069(3) 1
B1070(8) 0
B1071(3) 1
B1072(3) 1
B1073(3) 1
B1074(8) 0
B1075(3) 1
B1076(6) 1
B1077(3) 0
B1078(3) 1
B1079(3) 1
B1080(10) 1
B1081(3) 0
B1082(10) 1
B1083(3) 0
B1084(16) 0
B1085(3) 1
B1086(3) 1
B1087(10) 0
B1088(3) 1
B1089(10) 0
B1090(3) 0
B1091(16) 0
B1092(3) 1
B1093(3) 1
B1094(10) 0
B1095(3) 1
B1096(16) 0
B1097(3) 1
B1098(3) 1
B1099(10) 0
B1100(3) 1
B1101(6) 1
B1102(3) 0
B1103(16) 0
B1104(3) 1
B1105(3) 1
B1106(10) 1
B1107(3) 0
B1108(10) 1
B1109(3) 0
B1110(18) 0
B1111(3) 1
B1112(10) 1
B1113(3) 0
B1114(3) 1
B1115(3) 1
B1116(10) 0
B1117(3) 1
B1118(18) 0
B1119(3) 1
B1120(10) 0
B1121(3) 1
B1122(3) 1
B1123(3) 1
B1124(18) 0
B1125(3) 1
B1126(10) 1
B1127(3) 0
B1128(3) 1
B1129(3) 1
B1130(18) 1
B1131(3) 0
B1132(6) 0
B1133(3) 1
B1134(4) 0
B1135(6) 0
B1136(3) 1
B1137(3) 1
B1138(4) 0
B1139(3) 1
B1140(6) 1
B1141(3) 0
B1142(10) 0
B1143(3) 0
B1144(10) 1
B1145(3) 0
B1146(18) 0
B1147(3) 1
B1148(10) 0
B1149(3) 0
B1150(3) 1
B1151(3) 1
B1152(10) 1
B1153(3) 0
B1154(18) 0
B1155(3) 1
B1156(10) 0
B1157(3) 1
B1158(3) 1
B1159(3) 1
B1160(18) 0
B1161(3) 1
B1162(10) 0
B1163(3) 0
B1164(3) 1
B1165(3) 1
B1166(18) 1
B1167(3) 0
B1168(8) 0
B1169(3) 1
B1170(6) 0
B1171(3) 1
B1172(3) 1
B1173(3) 1
B1174(6) 1
B1175(3) 0
B1176(3) 0
B1177(18) 1
B1178(3) 0
B1179(10) 0
B1180(3) 1
B1181(3) 0
B1182(10) 0
B1183(3) 1
B1184(10) 0
B1185(3) 1
B1186(8) 1
B1187(3) 0
B1188(3) 1
B1189(8) 0
B1190(3) 1
B1191(3) 1
B1192(3) 1
B1193(18) 0
B1194(3) 1
B1195(8) 0
B1196(3) 1
B1197(18) 0
B1198(3) 1
B1199(18) 0
B1200(3) 1
B1201(3) 0
B1202(10) 0
B1203(3) 1
B1204(6) 0
B1205(10) 0
B1206(3) 1
B1207(3) 1
B1208(3) 1
B1209(6) 0
B1210(10) 0
B1211(3) 1
B1212(18) 1
B1213(3) 0
B1214(6) 1
B1215(3) 0
B1216(6) 0
B1217(3) 1
B1218(3) 0
B1219(3) 1
B1220(3) 1
B1221(3) 0
B1222(3) 1
B1223(10) 0
B1224(3) 1
B1225(10) 0
B1226(3) 1
B1227(10) 0
B1228(3) 1
B1229(6) 0
B1230(3) 1
B1231(18) 0
B1232(3) 1
B1233(18) 0
B1234(3) 1
B1235(18) 0
B1236(3) 1
B1237(3) 0
B1238(3) 1
B1239(3) 1
B1240(10) 0
B1241(3) 1
B1242(10) 0
B1243(3) 1
B1244(10) 0
B1245(3) 1
B1246(18) 1
B1247(3) 0
B1248(18) 1
B1249(3) 0
B1250(8) 0
B1251(3) 1
B1252(18) 0
B1253(3) 1
B1254(6) 0
B1255(3) 1
B1256(18) 0
B1257(3) 1
B1258(10) 0
B1259(3) 1
B1260(3) 1
B1261(10) 0
B1262(3) 1
B1263(3) 1
B1264(10) 0
B1265(3) 1
B1266(3) 1
B1267(10) 0
B1268(3) 1
B1269(3) 1
B1270(10) 0
B1271(3) 1
B1272(3) 1
B1273(6) 0
B1274(3) 1
B1275(3) 1
B1276(3) 0
B1277(10) 0
B1278(3) 1
B1279(3) 1
B1280(18) 1
B1281(3) 0
B1282(18) 1
B1283(3) 0
B1284(6) 0
B1285(3) 1
B1286(18) 0
B1287(3) 1
B1288(18) 0
B1289(3) 1
B1290(6) 0
B1291(6) 0
B1292(3) 1
B1293(10) 0
B1294(3) 1
B1295(3) 1
B1296(10) 0
B1297(3) 1
B1298(10) 0
B1299(3) 1
B1300(3) 1
B1301(3) 1
B1302(10) 0
B1303(3) 1
B1304(10) 0
B1305(3) 1
B1306(3) 1
B1307(3) 1
B1308(3) 1
B1309(6) 0
B1310(6) 0
B1311(3) 1
B1312(10) 0
B1313(3) 1
B1314(3) 0
B1315(3) 0
B1316(18) 1
B1317(3) 0
B1318(18) 1
B1319(3) 0
B1320(6) 0
B1321(3) 1
B1322(6) 0
B1323(3) 1
B1324(18) 0
B1325(3) 1
B1326(18) 0
B1327(3) 1
B1328(10) 0
B1329(3) 1
B1330(3) 1
B1331(3) 1
B1332(10) 0
B1333(3) 1
B1334(10) 0
B1335(3) 1
B1336(3) 1
B1337(3) 1
B1338(10) 0
B1339(3) 1
B1340(10) 0
B1341(3) 1
B1342(6) 0
B1343(3) 1
B1344(3) 1
B1345(3) 1
B1346(3) 1
B1347(3) 0
B1348(10) 0
B1349(3) 0
B1350(6) 1
B1351(3) 0
B1352(6) 0
B1353(3) 0
B1354(3) 1
B1355(3) 1
B1356(3) 1
B1357(3) 1
B1358(6) 0
B1359(3) 1
B1360(18) 0
B1361(3) 1
B1362(18) 0
B1363(3) 1
B1364(18) 0
B1365(3) 1
B1366(18) 0
B1367(3) 1
B1368(3) 1
B1369(3) 1
B1370(3) 1
B1371(3) 1
B1372(10) 1
B1373(3) 0
B1374(10) 0
B1375(3) 1
B1376(10) 0
B1377(3) 1
B1378(10) 0
B1379(3) 1
B1380(10) 0
B1381(3) 1
B1382(10) 1
B1383(3) 0
B1384(10) 1
B1385(3) 0
B1386(18) 0
B1387(3) 1
B1388(3) 1
B1389(3) 1
B1390(10) 0
B1391(3) 1
B1392(10) 0
B1393(3) 1
B1394(18) 0
B1395(3) 1
B1396(3) 1
B1397(3) 1
B1398(10) 0
B1399(3) 1
B1400(10) 0
B1401(3) 1
B1402(6) 0
B1403(3) 1
B1404(6) 0
B1405(3) 1
B1406(18) 0
B1407(3) 1
B1408(18) 0
B1409(3) 1
B1410(6) 1
B1411(3) 0
B1412(3) 1
B1413(3) 1
B1414(3) 1
B1415(3) 1
B1416(10) 0
B1417(3) 0
B1418(10) 1
B1419(3) 0
B1420(10) 0
B1421(3) 1
B1422(10) 0
B1423(3) 1
B1424(10) 0
B1425(3) 1
B1426(3) 1
B1427(3) 1
B1428(10) 0
B1429(3) 1
B1430(10) 0
B1431(3) 1
B1432(10) 0
B1433(3) 1
B1434(3) 1
B1435(3) 1
B1436(10) 0
B1437(3) 1
B1438(10) 0
B1439(3) 1
B1440(3) 1
B1441(3) 1
B1442(10) 0
B1443(3) 0
B1444(3) 1
B1445(3) 1
B1446(22) 0
B1447(3) 1
B1448(22) 0
B1449(3) 1
B1450(6) 0
B1451(3) 1
B1452(6) 1
B1453(3) 0
B1454(6) 0
B1455(3) 1
B1456(6) 0
B1457(3) 1
B1458(3) 1
B1459(3) 1
B1460(3) 1
B1461(8) 0
B1462(3) 1
B1463(8) 0
B1464(3) 1
B1465(3) 1
B1466(3) 1
B1467(3) 1
B1468(8) 0
B1469(3) 1
B1470(3) 1
B1471(3) 1
B1472(3) 1
B1473(18) 0
B1474(3) 1
B1475(18) 0
B1476(3) 1
B1477(18) 0
B1478(3) 1
B1479(8) 0
B1480(3) 1
B1481(8) 0
B1482(3) 1
B1483(8) 1
B1484(3) 0
B1485(16) 0
B1486(3) 1
B1487(3) 1
B1488(3) 1
B1489(8) 0
B1490(3) 1
B1491(8) 0
B1492(3) 1
B1493(6) 0
B1494(3) 1
B1495(6) 0
B1496(3) 1
B1497(16) 0
B1498(3) 1
B1499(16) 0
B1500(3) 1
B1501(6) 0
B1502(3) 1
B1503(3) 1
B1504(3) 1
B1505(3) 1
B1506(3) 1
B1507(8) 0
B1508(3) 0
B1509(10) 0
B1510(3) 1
B1511(14) 0
B1512(3) 1
B1513(3) 1
B1514(10) 0
B1515(3) 1
B1516(10) 0
B1517(3) 1
B1518(14) 0
B1519(3) 1
B1520(3) 1
B1521(10) 0
B1522(3) 1
B1523(10) 0
B1524(3) 1
B1525(4) 0
B1526(3) 1
B1527(14) 0
B1528(3) 1
B1529(14) 0
B1530(3) 1
B1531(3) 1
B1532(3) 1
B1533(10) 0
B1534(3) 1
B1535(8) 0
B1536(3) 1
B1537(14) 0
B1538(3) 1
B1539(3) 1
B1540(3) 1
B1541(8) 0
B1542(3) 1
B1543(14) 0
B1544(3) 1
B1545(3) 1
B1546(3) 1
B1547(8) 0
B1548(3) 1
B1549(6) 0
B1550(3) 1
B1551(4) 0
B1552(3) 1
B1553(14) 0
B1554(3) 1
B1555(4) 0
B1556(3) 1
B1557(3) 1
B1558(3) 1
B1559(8) 0
B1560(3) 1
B1561(8) 0
B1562(3) 1
B1563(8) 0
B1564(3) 1
B1565(16) 0
B1566(3) 1
B1567(8) 0
B1568(3) 1
B1569(8) 0
B1570(3) 1
B1571(3) 1
B1572(8) 0
B1573(3) 1
B1574(3) 1
B1575(3) 1
B1576(4) 0
B1577(3) 1
B1578(4) 0
B1579(3) 1
B1580(3) 1
B1581(3) 1
B1582(6) 0
B1583(3) 1
B1584(3) 1
B1585(3) 1
B1586(12) 0
B1587(3) 1
B1588(12) 0
B1589(3) 1
B1590(6) 0
B1591(3) 1
B1592(10) 0
B1593(3) 1
B1594(3) 1
B1595(6) 0
B1596(3) 1
B1597(4) 0
B1598(3) 1
B1599(10) 0
B1600(3) 1
B1601(3) 1
B1602(6) 0
B1603(3) 1
B1604(6) 0
B1605(3) 1
B1606(12) 0
B1607(3) 1
B1608(6) 0
B1609(3) 1
B1610(3) 1
B1611(3) 1
B1612(8) 0
B1613(3) 1
B1614(8) 0
B1615(3) 1
B1616(14) 0
B1617(3) 1
B1618(8) 0
B1619(3) 1
B1620(3) 1
B1621(3) 1
B1622(14) 0
B1623(3) 1
B1624(3) 1
B1625(3) 1
B1626(6) 0
B1627(3) 1
B1628(8) 0
B1629(3) 1
B1630(6) 0
B1631(3) 1
B1632(6) 0
B1633(8) 0
B1634(3) 1
B1635(6) 0
B1636(3) 1
B1637(6) 0
B1638(8) 0
B1639(3) 1
B1640(6) 1
B1641(3) 0
B1642(6) 0
B1643(3) 1
B1644(6) 0
B1645(3) 1
B1646(6) 0
B1647(3) 1
B1648(6) 0
B1649(3) 1
B1650(6) 0
B1651(3) 1
B1652(6) 0
B1653(3) 1
B1654(10) 1
B1655(10) 1
B1656(10) 1
B1657(10) 0
B1658(10) 0
B1659(10) 0
B1660(4) 1
B1661(3) 1
B1662(4) 0
B1663(3) 1
B1664(3) 1
B1665(3) 0
B1666(3) 0
B1667(3) 0
B1668(1) 0
B1669(1) 0
B1670(1) 0
B1671(1) 0
B1672(1) 0
B1673(1) 0
B1674(1) 0
